NumActors = 6;
NumScenes = 10;
NumLocations = 5;
NumPrecedences = 3;

ActorCost = [8, 2, 9, 9, 20, 17];
LocationCost = [0, 38, 16, 8, 16];
SceneDuration = [5, 4, 2, 2, 4, 5, 1, 5, 5, 5];
SceneLocation = [4, 0, 3, 4, 4, 0, 0, 2, 1, 3];
Presence = [|1, 0, 0, 0, 0, 0, 1, 1, 1, 0
            |0, 0, 1, 0, 1, 1, 1, 1, 1, 0
            |1, 0, 1, 1, 1, 1, 0, 0, 1, 0
            |0, 0, 1, 0, 0, 1, 1, 1, 0, 0
            |1, 0, 0, 1, 1, 1, 1, 1, 0, 0
            |1, 1, 1, 1, 1, 1, 1, 1, 0, 1|];
Precedences = [|8, 9
               |0, 6
               |5, 3|];
